(declare-const term_to_project_onto7_integralized Int)
(declare-const term_to_project_onto20_integralized Int)
(declare-const term_to_project_onto5_integralized Int)
(declare-const term_to_project_onto10_integralized Int)
(declare-const term_to_project_onto1_integralized Int)
(declare-const term_to_project_onto23_integralized Int)
(declare-const term_to_project_onto3_integralized Int)
(declare-const term_to_project_onto16_integralized Int)
(declare-const term_to_project_onto21_integralized Int)
(declare-const term_to_project_onto17_integralized Int)
(declare-const term_to_project_onto15_integralized Int)
(declare-const term_to_project_onto2_integralized Int)
(declare-const term_to_project_onto11_integralized Int)
(declare-const term_to_project_onto14_integralized Int)
(declare-const term_to_project_onto19_integralized Int)
(declare-const term_to_project_onto18_integralized Int)
(declare-const term_to_project_onto0_integralized Int)
(declare-const term_to_project_onto13_integralized Int)
(declare-const term_to_project_onto12_integralized Int)
(declare-const term_to_project_onto4_integralized Int)
(declare-const term_to_project_onto6_integralized Int)
(declare-const term_to_project_onto_integralized Int)
(declare-const term_to_project_onto9_integralized Int)
(declare-const term_to_project_onto22_integralized Int)
(declare-const term_to_project_onto8_integralized Int)
(declare-const term_to_project_onto24_integralized Int)
(assert (exists
         ((|mem_12@width'?1?1| Int) (|mem_11@width'?2?2| Int)
            (|mem_10@width'?3?3| Int) (|mem_9@width'?4?4| Int)
            (|mem_8@width'?5?5| Int) (|mem_7@width'?6?6| Int)
            (|mem_6@width'?7?7| Int) (|mem_12@pos'?8?8| Int)
            (|mem_11@pos'?9?9| Int) (|mem_10@pos'?10?10| Int)
            (|mem_9@pos'?11?11| Int) (|mem_8@pos'?12?12| Int)
            (|mem_7@pos'?13?13| Int) (|mem_6@pos'?14?14| Int)
            (|mem_12'?15?15| Int) (|mem_11'?16?16| Int) (|mem_10'?17?17| Int)
            (|mem_9'?18?18| Int) (|mem_8'?19?19| Int) (|mem_7'?20?20| Int)
            (|mem_6'?21?21| Int) (|Id_MCDC_158'?22?22| Int)
            (|Id_MCDC_157.3'?23?23| Int) (|Id_MCDC_157.2'?24?24| Int)
            (|Id_MCDC_157.1'?25?25| Int) (|Id_MCDC_157'?26?26| Int)
            (tr?27?27 Int) (phi_Id_MCDC_157.3?28?28 Int)
            (phi_Id_MCDC_157.2?29?29 Int) (phi_Id_MCDC_157.1?30?30 Int)
            (phi_Id_MCDC_157?31?31 Int) (phi_Id_MCDC_157.2?32?32 Int)
            (phi_Id_MCDC_157.1?33?33 Int) (phi_Id_MCDC_157?34?34 Int)
            (phi_Id_MCDC_157.1?35?35 Int) (phi_Id_MCDC_157?36?36 Int)
            (phi_Id_MCDC_157?37?37 Int) (tr?38?38 Int)
            (phi_mem_12@width?39?39 Int) (phi_mem_11@width?40?40 Int)
            (phi_mem_10@width?41?41 Int) (phi_mem_9@width?42?42 Int)
            (phi_mem_8@width?43?43 Int) (phi_mem_7@width?44?44 Int)
            (phi_mem_6@width?45?45 Int) (phi_mem_12@pos?46?46 Int)
            (phi_mem_11@pos?47?47 Int) (phi_mem_10@pos?48?48 Int)
            (phi_mem_9@pos?49?49 Int) (phi_mem_8@pos?50?50 Int)
            (phi_mem_7@pos?51?51 Int) (phi_mem_6@pos?52?52 Int)
            (phi_mem_12?53?53 Int) (phi_mem_11?54?54 Int)
            (phi_mem_10?55?55 Int) (phi_mem_9?56?56 Int)
            (phi_mem_8?57?57 Int) (phi_mem_7?58?58 Int) (phi_mem_6?59?59 Int)
            (phi_Id_MCDC_157.3?60?60 Int) (phi_Id_MCDC_157.2?61?61 Int)
            (phi_Id_MCDC_157.1?62?62 Int) (phi_Id_MCDC_157?63?63 Int)
            (tr?64?64 Int) (phi_Id_MCDC_157.3?65?65 Int)
            (phi_Id_MCDC_157.2?66?66 Int) (phi_Id_MCDC_157.1?67?67 Int)
            (phi_Id_MCDC_157?68?68 Int) (phi_Id_MCDC_157.2?69?69 Int)
            (phi_Id_MCDC_157.1?70?70 Int) (phi_Id_MCDC_157?71?71 Int)
            (phi_Id_MCDC_157.1?72?72 Int) (phi_Id_MCDC_157?73?73 Int)
            (tr?74?74 Int) (phi_Id_MCDC_157?75?75 Int) (tr?76?76 Int)
            (phi_mem_11@width?77?77 Int) (phi_mem_10@width?78?78 Int)
            (phi_mem_9@width?79?79 Int) (phi_mem_8@width?80?80 Int)
            (phi_mem_11@pos?81?81 Int) (phi_mem_10@pos?82?82 Int)
            (phi_mem_9@pos?83?83 Int) (phi_mem_8@pos?84?84 Int)
            (phi_mem_11?85?85 Int) (tr?86?86 Int) (phi_mem_10?87?87 Int)
            (phi_mem_9?88?88 Int) (phi_mem_8?89?89 Int)
            (phi_Id_MCDC_157.3?90?90 Int) (phi_Id_MCDC_157.2?91?91 Int)
            (phi_Id_MCDC_157.1?92?92 Int) (phi_Id_MCDC_157?93?93 Int)
            (phi_Id_MCDC_157.3?94?94 Int) (phi_Id_MCDC_157.2?95?95 Int)
            (phi_Id_MCDC_157.1?96?96 Int) (phi_Id_MCDC_157?97?97 Int)
            (phi_Id_MCDC_157.2?98?98 Int) (phi_Id_MCDC_157.1?99?99 Int)
            (phi_Id_MCDC_157?100?100 Int) (phi_Id_MCDC_157.1?101?101 Int)
            (phi_Id_MCDC_157?102?102 Int) (phi_Id_MCDC_157?103?103 Int)
            (tr?104?104 Int) (tr?105?105 Int) (mem_7?106?106 Int)
            (mem_12?107?107 Int) (mem_7@pos?108?108 Int)
            (mem_12@pos?109?109 Int) (mem_7@width?110?110 Int)
            (mem_12@width?111?111 Int) (mem_8?112?112 Int)
            (mem_10?113?113 Int) (mem_11?114?114 Int) (mem_8@pos?115?115 Int)
            (mem_10@pos?116?116 Int) (mem_11@pos?117?117 Int)
            (mem_8@width?118?118 Int) (mem_10@width?119?119 Int)
            (mem_11@width?120?120 Int) (mem_9?121?121 Int)
            (mem_9@pos?122?122 Int) (mem_9@width?123?123 Int)
            (mem_6?124?124 Int) (mem_6@pos?125?125 Int)
            (mem_6@width?126?126 Int) (Id_MCDC_157.3?127?127 Int)
            (Id_MCDC_157.2?128?128 Int) (Id_MCDC_157.1?129?129 Int)
            (Id_MCDC_157?130?130 Int) (Id_MCDC_131.Id_MCDC_66?131?131 Int)
            (Id_MCDC_131.Id_MCDC_66@pos?132?132 Int)
            (Id_MCDC_131.Id_MCDC_66@width?133?133 Int)
            (Id_MCDC_158?134?134 Int))
         (and (<= (- Id_MCDC_158?134?134) 0)
                (<= (+ Id_MCDC_158?134?134 -3) 0)
                (or (and (<= (+ tr?105?105 -240) 0)
                           (or (and (<= tr?104?104 0)
                                      (or (and (or (and (or (and (or 
                                                                   (= 
                                                                    (+ 
                                                                    (- 
                                                                    phi_Id_MCDC_157?103?103)
                                                                    Id_MCDC_157?130?130) 0)
                                                                    (= 
                                                                    (+ 
                                                                    (- 
                                                                    phi_Id_MCDC_157?103?103)
                                                                    1) 0))
                                                                   (= 
                                                                   (+ 
                                                                   (- 
                                                                    phi_Id_MCDC_157?102?102)
                                                                    phi_Id_MCDC_157?103?103) 0)
                                                                   (= 
                                                                   (+ 
                                                                   (- 
                                                                    phi_Id_MCDC_157.1?101?101)
                                                                    Id_MCDC_157.1?129?129) 0))
                                                              (and (= 
                                                                    (+ 
                                                                    (- 
                                                                    phi_Id_MCDC_157?102?102)
                                                                    Id_MCDC_157?130?130) 0)
                                                                    (= 
                                                                    (+ 
                                                                    (- 
                                                                    phi_Id_MCDC_157.1?101?101)
                                                                    1) 0)))
                                                          (= (+ (- phi_Id_MCDC_157?100?100)
                                                                  phi_Id_MCDC_157?102?102) 0)
                                                          (= (+ (- phi_Id_MCDC_157.1?99?99)
                                                                  phi_Id_MCDC_157.1?101?101) 0)
                                                          (= (+ (- phi_Id_MCDC_157.2?98?98)
                                                                  Id_MCDC_157.2?128?128) 0))
                                                     (and (= (+ (- phi_Id_MCDC_157?100?100)
                                                                  Id_MCDC_157?130?130) 0)
                                                            (= (+ (- 
                                                                    phi_Id_MCDC_157.1?99?99)
                                                                    Id_MCDC_157.1?129?129) 0)
                                                            (= (+ (- 
                                                                    phi_Id_MCDC_157.2?98?98)
                                                                    1) 0)))
                                                 (= (+ (- phi_Id_MCDC_157?97?97)
                                                         phi_Id_MCDC_157?100?100) 0)
                                                 (= (+ (- phi_Id_MCDC_157.1?96?96)
                                                         phi_Id_MCDC_157.1?99?99) 0)
                                                 (= (+ (- phi_Id_MCDC_157.2?95?95)
                                                         phi_Id_MCDC_157.2?98?98) 0)
                                                 (= (+ (- phi_Id_MCDC_157.3?94?94)
                                                         Id_MCDC_157.3?127?127) 0))
                                            (and (= (+ (- phi_Id_MCDC_157?97?97)
                                                         Id_MCDC_157?130?130) 0)
                                                   (= (+ (- phi_Id_MCDC_157.1?96?96)
                                                           Id_MCDC_157.1?129?129) 0)
                                                   (= (+ (- phi_Id_MCDC_157.2?95?95)
                                                           Id_MCDC_157.2?128?128) 0)
                                                   (= (+ (- phi_Id_MCDC_157.3?94?94)
                                                           1) 0)))
                                      (= (+ (- phi_Id_MCDC_157?93?93)
                                              phi_Id_MCDC_157?97?97) 0)
                                      (= (+ (- phi_Id_MCDC_157.1?92?92)
                                              phi_Id_MCDC_157.1?96?96) 0)
                                      (= (+ (- phi_Id_MCDC_157.2?91?91)
                                              phi_Id_MCDC_157.2?95?95) 0)
                                      (= (+ (- phi_Id_MCDC_157.3?90?90)
                                              phi_Id_MCDC_157.3?94?94) 0)
                                      (= (+ (- phi_mem_8?89?89) mem_8?112?112) 0)
                                      (= (+ (- phi_mem_9?88?88) mem_9?121?121) 0)
                                      (= (+ (- phi_mem_10?87?87)
                                              mem_10?113?113) 0)
                                      (= (+ (- phi_mem_11?85?85) tr?86?86
                                              Id_MCDC_158?134?134) 0)
                                      (= (+ (- phi_mem_8@pos?84?84)
                                              mem_8@pos?115?115) 0)
                                      (= (+ (- phi_mem_9@pos?83?83)
                                              mem_9@pos?122?122) 0)
                                      (= (+ (- phi_mem_10@pos?82?82)
                                              mem_10@pos?116?116) 0)
                                      (= (+ (- phi_mem_11@pos?81?81)
                                              Id_MCDC_158?134?134) 0)
                                      (= (+ (- phi_mem_8@width?80?80)
                                              mem_8@width?118?118) 0)
                                      (= (+ (- phi_mem_9@width?79?79)
                                              mem_9@width?123?123) 0)
                                      (= (+ (- phi_mem_10@width?78?78)
                                              mem_10@width?119?119) 0)
                                      (= (+ (- phi_mem_11@width?77?77) 1) 0))
                                 (and (<= (+ (- tr?76?76) 1) 0)
                                        (or (and (or (and (or (and (or 
                                                                    (= 
                                                                    (+ 
                                                                    (- 
                                                                    phi_Id_MCDC_157?75?75)
                                                                    Id_MCDC_157?130?130) 0)
                                                                    (= 
                                                                    (+ 
                                                                    tr?74?74
                                                                    (- 
                                                                    phi_Id_MCDC_157?75?75)) 0))
                                                                    (= 
                                                                    (+ 
                                                                    (- 
                                                                    phi_Id_MCDC_157?73?73)
                                                                    phi_Id_MCDC_157?75?75) 0)
                                                                    (= 
                                                                    (+ 
                                                                    (- 
                                                                    phi_Id_MCDC_157.1?72?72)
                                                                    Id_MCDC_157.1?129?129) 0))
                                                                (and 
                                                                (= (+ 
                                                                   (- 
                                                                    phi_Id_MCDC_157?73?73)
                                                                    Id_MCDC_157?130?130) 0)
                                                                  (= 
                                                                  (+ 
                                                                  (- 
                                                                    phi_Id_MCDC_157.1?72?72)
                                                                    tr?74?74) 0)))
                                                            (= (+ (- 
                                                                    phi_Id_MCDC_157?71?71)
                                                                    phi_Id_MCDC_157?73?73) 0)
                                                            (= (+ (- 
                                                                    phi_Id_MCDC_157.1?70?70)
                                                                    phi_Id_MCDC_157.1?72?72) 0)
                                                            (= (+ (- 
                                                                    phi_Id_MCDC_157.2?69?69)
                                                                    Id_MCDC_157.2?128?128) 0))
                                                       (and (= (+ (- 
                                                                    phi_Id_MCDC_157?71?71)
                                                                    Id_MCDC_157?130?130) 0)
                                                              (= (+ (- 
                                                                    phi_Id_MCDC_157.1?70?70)
                                                                    Id_MCDC_157.1?129?129) 0)
                                                              (= (+ (- 
                                                                    phi_Id_MCDC_157.2?69?69)
                                                                    tr?74?74) 0)))
                                                   (= (+ (- phi_Id_MCDC_157?68?68)
                                                           phi_Id_MCDC_157?71?71) 0)
                                                   (= (+ (- phi_Id_MCDC_157.1?67?67)
                                                           phi_Id_MCDC_157.1?70?70) 0)
                                                   (= (+ (- phi_Id_MCDC_157.2?66?66)
                                                           phi_Id_MCDC_157.2?69?69) 0)
                                                   (= (+ (- phi_Id_MCDC_157.3?65?65)
                                                           Id_MCDC_157.3?127?127) 0))
                                              (and (= (+ (- phi_Id_MCDC_157?68?68)
                                                           Id_MCDC_157?130?130) 0)
                                                     (= (+ (- phi_Id_MCDC_157.1?67?67)
                                                             Id_MCDC_157.1?129?129) 0)
                                                     (= (+ (- phi_Id_MCDC_157.2?66?66)
                                                             Id_MCDC_157.2?128?128) 0)
                                                     (= (+ (- phi_Id_MCDC_157.3?65?65)
                                                             tr?74?74) 0)))
                                        (= (+ phi_Id_MCDC_157?68?68
                                                (- phi_Id_MCDC_157?93?93)) 0)
                                        (= (+ phi_Id_MCDC_157.1?67?67
                                                (- phi_Id_MCDC_157.1?92?92)) 0)
                                        (= (+ phi_Id_MCDC_157.2?66?66
                                                (- phi_Id_MCDC_157.2?91?91)) 0)
                                        (= (+ phi_Id_MCDC_157.3?65?65
                                                (- phi_Id_MCDC_157.3?90?90)) 0)
                                        (= (+ tr?64?64 (- phi_mem_8?89?89)
                                                Id_MCDC_158?134?134) 0)
                                        (= (+ Id_MCDC_131.Id_MCDC_66?131?131
                                                (- phi_mem_9?88?88)) 0)
                                        (= (+ Id_MCDC_131.Id_MCDC_66?131?131
                                                (- phi_mem_10?87?87)
                                                (* 72 Id_MCDC_158?134?134) 8) 0)
                                        (= (+ mem_11?114?114
                                                (- phi_mem_11?85?85)) 0)
                                        (= (+ (- phi_mem_8@pos?84?84)
                                                Id_MCDC_158?134?134) 0)
                                        (= (+ Id_MCDC_131.Id_MCDC_66@pos?132?132
                                                (- phi_mem_9@pos?83?83)) 0)
                                        (= (+ Id_MCDC_131.Id_MCDC_66@pos?132?132
                                                (- phi_mem_10@pos?82?82)
                                                (* 72 Id_MCDC_158?134?134) 8) 0)
                                        (= (+ mem_11@pos?117?117
                                                (- phi_mem_11@pos?81?81)) 0)
                                        (= (+ (- phi_mem_8@width?80?80) 1) 0)
                                        (= (+ Id_MCDC_131.Id_MCDC_66@width?133?133
                                                (- phi_mem_9@width?79?79)) 0)
                                        (= (+ Id_MCDC_131.Id_MCDC_66@width?133?133
                                                (- phi_mem_10@width?78?78)) 0)
                                        (= (+ mem_11@width?120?120
                                                (- phi_mem_11@width?77?77)) 0)))
                           (= (+ (- phi_Id_MCDC_157?63?63)
                                   phi_Id_MCDC_157?93?93) 0)
                           (= (+ (- phi_Id_MCDC_157.1?62?62)
                                   phi_Id_MCDC_157.1?92?92) 0)
                           (= (+ (- phi_Id_MCDC_157.2?61?61)
                                   phi_Id_MCDC_157.2?91?91) 0)
                           (= (+ (- phi_Id_MCDC_157.3?60?60)
                                   phi_Id_MCDC_157.3?90?90) 0)
                           (= (+ (- phi_mem_6?59?59)
                                   Id_MCDC_131.Id_MCDC_66?131?131) 0)
                           (= (+ (- phi_mem_7?58?58)
                                   Id_MCDC_131.Id_MCDC_66?131?131
                                   (* 72 Id_MCDC_158?134?134) 8) 0)
                           (= (+ (- phi_mem_8?57?57) phi_mem_8?89?89) 0)
                           (= (+ (- phi_mem_9?56?56) phi_mem_9?88?88) 0)
                           (= (+ (- phi_mem_10?55?55) phi_mem_10?87?87) 0)
                           (= (+ (- phi_mem_11?54?54) phi_mem_11?85?85) 0)
                           (= (+ (- phi_mem_12?53?53) mem_12?107?107) 0)
                           (= (+ (- phi_mem_6@pos?52?52)
                                   Id_MCDC_131.Id_MCDC_66@pos?132?132) 0)
                           (= (+ (- phi_mem_7@pos?51?51)
                                   Id_MCDC_131.Id_MCDC_66@pos?132?132
                                   (* 72 Id_MCDC_158?134?134) 8) 0)
                           (= (+ (- phi_mem_8@pos?50?50) phi_mem_8@pos?84?84) 0)
                           (= (+ (- phi_mem_9@pos?49?49) phi_mem_9@pos?83?83) 0)
                           (= (+ (- phi_mem_10@pos?48?48)
                                   phi_mem_10@pos?82?82) 0)
                           (= (+ (- phi_mem_11@pos?47?47)
                                   phi_mem_11@pos?81?81) 0)
                           (= (+ (- phi_mem_12@pos?46?46) mem_12@pos?109?109) 0)
                           (= (+ (- phi_mem_6@width?45?45)
                                   Id_MCDC_131.Id_MCDC_66@width?133?133) 0)
                           (= (+ (- phi_mem_7@width?44?44)
                                   Id_MCDC_131.Id_MCDC_66@width?133?133) 0)
                           (= (+ (- phi_mem_8@width?43?43)
                                   phi_mem_8@width?80?80) 0)
                           (= (+ (- phi_mem_9@width?42?42)
                                   phi_mem_9@width?79?79) 0)
                           (= (+ (- phi_mem_10@width?41?41)
                                   phi_mem_10@width?78?78) 0)
                           (= (+ (- phi_mem_11@width?40?40)
                                   phi_mem_11@width?77?77) 0)
                           (= (+ (- phi_mem_12@width?39?39)
                                   mem_12@width?111?111) 0))
                      (and (<= (+ (- tr?38?38) 241) 0)
                             (or (and (or (and (or (and (or (= (+ (- 
                                                                    phi_Id_MCDC_157?37?37)
                                                                    Id_MCDC_157?130?130) 0)
                                                              (= (+ (- 
                                                                    phi_Id_MCDC_157?37?37)
                                                                    1) 0))
                                                          (= (+ (- phi_Id_MCDC_157?36?36)
                                                                  phi_Id_MCDC_157?37?37) 0)
                                                          (= (+ (- phi_Id_MCDC_157.1?35?35)
                                                                  Id_MCDC_157.1?129?129) 0))
                                                     (and (= (+ (- phi_Id_MCDC_157?36?36)
                                                                  Id_MCDC_157?130?130) 0)
                                                            (= (+ (- 
                                                                    phi_Id_MCDC_157.1?35?35)
                                                                    1) 0)))
                                                 (= (+ (- phi_Id_MCDC_157?34?34)
                                                         phi_Id_MCDC_157?36?36) 0)
                                                 (= (+ (- phi_Id_MCDC_157.1?33?33)
                                                         phi_Id_MCDC_157.1?35?35) 0)
                                                 (= (+ (- phi_Id_MCDC_157.2?32?32)
                                                         Id_MCDC_157.2?128?128) 0))
                                            (and (= (+ (- phi_Id_MCDC_157?34?34)
                                                         Id_MCDC_157?130?130) 0)
                                                   (= (+ (- phi_Id_MCDC_157.1?33?33)
                                                           Id_MCDC_157.1?129?129) 0)
                                                   (= (+ (- phi_Id_MCDC_157.2?32?32)
                                                           1) 0)))
                                        (= (+ (- phi_Id_MCDC_157?31?31)
                                                phi_Id_MCDC_157?34?34) 0)
                                        (= (+ (- phi_Id_MCDC_157.1?30?30)
                                                phi_Id_MCDC_157.1?33?33) 0)
                                        (= (+ (- phi_Id_MCDC_157.2?29?29)
                                                phi_Id_MCDC_157.2?32?32) 0)
                                        (= (+ (- phi_Id_MCDC_157.3?28?28)
                                                Id_MCDC_157.3?127?127) 0))
                                   (and (= (+ (- phi_Id_MCDC_157?31?31)
                                                Id_MCDC_157?130?130) 0)
                                          (= (+ (- phi_Id_MCDC_157.1?30?30)
                                                  Id_MCDC_157.1?129?129) 0)
                                          (= (+ (- phi_Id_MCDC_157.2?29?29)
                                                  Id_MCDC_157.2?128?128) 0)
                                          (= (+ (- phi_Id_MCDC_157.3?28?28) 1) 0)))
                             (= (+ phi_Id_MCDC_157?31?31
                                     (- phi_Id_MCDC_157?63?63)) 0)
                             (= (+ phi_Id_MCDC_157.1?30?30
                                     (- phi_Id_MCDC_157.1?62?62)) 0)
                             (= (+ phi_Id_MCDC_157.2?29?29
                                     (- phi_Id_MCDC_157.2?61?61)) 0)
                             (= (+ phi_Id_MCDC_157.3?28?28
                                     (- phi_Id_MCDC_157.3?60?60)) 0)
                             (= (+ mem_6?124?124 (- phi_mem_6?59?59)) 0)
                             (= (+ mem_7?106?106 (- phi_mem_7?58?58)) 0)
                             (= (+ (- phi_mem_8?57?57) mem_8?112?112) 0)
                             (= (+ (- phi_mem_9?56?56) mem_9?121?121) 0)
                             (= (+ (- phi_mem_10?55?55) mem_10?113?113) 0)
                             (= (+ (- phi_mem_11?54?54) mem_11?114?114) 0)
                             (= (+ tr?27?27 (- phi_mem_12?53?53)
                                     Id_MCDC_158?134?134) 0)
                             (= (+ mem_6@pos?125?125 (- phi_mem_6@pos?52?52)) 0)
                             (= (+ mem_7@pos?108?108 (- phi_mem_7@pos?51?51)) 0)
                             (= (+ (- phi_mem_8@pos?50?50) mem_8@pos?115?115) 0)
                             (= (+ (- phi_mem_9@pos?49?49) mem_9@pos?122?122) 0)
                             (= (+ (- phi_mem_10@pos?48?48)
                                     mem_10@pos?116?116) 0)
                             (= (+ (- phi_mem_11@pos?47?47)
                                     mem_11@pos?117?117) 0)
                             (= (+ (- phi_mem_12@pos?46?46)
                                     Id_MCDC_158?134?134) 0)
                             (= (+ mem_6@width?126?126
                                     (- phi_mem_6@width?45?45)) 0)
                             (= (+ mem_7@width?110?110
                                     (- phi_mem_7@width?44?44)) 0)
                             (= (+ (- phi_mem_8@width?43?43)
                                     mem_8@width?118?118) 0)
                             (= (+ (- phi_mem_9@width?42?42)
                                     mem_9@width?123?123) 0)
                             (= (+ (- phi_mem_10@width?41?41)
                                     mem_10@width?119?119) 0)
                             (= (+ (- phi_mem_11@width?40?40)
                                     mem_11@width?120?120) 0)
                             (= (+ (- phi_mem_12@width?39?39) 1) 0)))
                (= (+ |mem_12@width'?1?1| (- phi_mem_12@width?39?39)) 0)
                (= (+ |mem_11@width'?2?2| (- phi_mem_11@width?40?40)) 0)
                (= (+ |mem_10@width'?3?3| (- phi_mem_10@width?41?41)) 0)
                (= (+ |mem_9@width'?4?4| (- phi_mem_9@width?42?42)) 0)
                (= (+ |mem_8@width'?5?5| (- phi_mem_8@width?43?43)) 0)
                (= (+ |mem_7@width'?6?6| (- phi_mem_7@width?44?44)) 0)
                (= (+ |mem_6@width'?7?7| (- phi_mem_6@width?45?45)) 0)
                (= (+ |mem_12@pos'?8?8| (- phi_mem_12@pos?46?46)) 0)
                (= (+ |mem_11@pos'?9?9| (- phi_mem_11@pos?47?47)) 0)
                (= (+ |mem_10@pos'?10?10| (- phi_mem_10@pos?48?48)) 0)
                (= (+ |mem_9@pos'?11?11| (- phi_mem_9@pos?49?49)) 0)
                (= (+ |mem_8@pos'?12?12| (- phi_mem_8@pos?50?50)) 0)
                (= (+ |mem_7@pos'?13?13| (- phi_mem_7@pos?51?51)) 0)
                (= (+ |mem_6@pos'?14?14| (- phi_mem_6@pos?52?52)) 0)
                (= (+ |mem_12'?15?15| (- phi_mem_12?53?53)) 0)
                (= (+ |mem_11'?16?16| (- phi_mem_11?54?54)) 0)
                (= (+ |mem_10'?17?17| (- phi_mem_10?55?55)) 0)
                (= (+ |mem_9'?18?18| (- phi_mem_9?56?56)) 0)
                (= (+ |mem_8'?19?19| (- phi_mem_8?57?57)) 0)
                (= (+ |mem_7'?20?20| (- phi_mem_7?58?58)) 0)
                (= (+ |mem_6'?21?21| (- phi_mem_6?59?59)) 0)
                (= (+ |Id_MCDC_158'?22?22| (- Id_MCDC_158?134?134) -1) 0)
                (= (+ |Id_MCDC_157.3'?23?23| (- phi_Id_MCDC_157.3?60?60)) 0)
                (= (+ |Id_MCDC_157.2'?24?24| (- phi_Id_MCDC_157.2?61?61)) 0)
                (= (+ |Id_MCDC_157.1'?25?25| (- phi_Id_MCDC_157.1?62?62)) 0)
                (= (+ |Id_MCDC_157'?26?26| (- phi_Id_MCDC_157?63?63)) 0)
                (= (+ term_to_project_onto24_integralized
                        (- (+ |Id_MCDC_157'?26?26| (- Id_MCDC_157?130?130)))) 0)
                (= (+ term_to_project_onto23_integralized
                        (- (+ |Id_MCDC_157.1'?25?25|
                                (- Id_MCDC_157.1?129?129)))) 0)
                (= (+ term_to_project_onto22_integralized
                        (- (+ |Id_MCDC_157.2'?24?24|
                                (- Id_MCDC_157.2?128?128)))) 0)
                (= (+ term_to_project_onto21_integralized
                        (- (+ |Id_MCDC_157.3'?23?23|
                                (- Id_MCDC_157.3?127?127)))) 0)
                (= (+ term_to_project_onto20_integralized
                        (- (+ |Id_MCDC_158'?22?22| (- Id_MCDC_158?134?134)))) 0)
                (= (+ term_to_project_onto19_integralized
                        (- (+ |mem_6'?21?21| (- mem_6?124?124)))) 0)
                (= (+ term_to_project_onto18_integralized
                        (- (+ |mem_7'?20?20| (- mem_7?106?106)))) 0)
                (= (+ term_to_project_onto17_integralized
                        (- (+ |mem_8'?19?19| (- mem_8?112?112)))) 0)
                (= (+ term_to_project_onto16_integralized
                        (- (+ |mem_9'?18?18| (- mem_9?121?121)))) 0)
                (= (+ term_to_project_onto15_integralized
                        (- (+ |mem_10'?17?17| (- mem_10?113?113)))) 0)
                (= (+ term_to_project_onto14_integralized
                        (- (+ |mem_11'?16?16| (- mem_11?114?114)))) 0)
                (= (+ term_to_project_onto13_integralized
                        (- (+ |mem_12'?15?15| (- mem_12?107?107)))) 0)
                (= (+ term_to_project_onto12_integralized
                        (- (+ |mem_6@pos'?14?14| (- mem_6@pos?125?125)))) 0)
                (= (+ term_to_project_onto11_integralized
                        (- (+ |mem_7@pos'?13?13| (- mem_7@pos?108?108)))) 0)
                (= (+ term_to_project_onto10_integralized
                        (- (+ |mem_8@pos'?12?12| (- mem_8@pos?115?115)))) 0)
                (= (+ term_to_project_onto9_integralized
                        (- (+ |mem_9@pos'?11?11| (- mem_9@pos?122?122)))) 0)
                (= (+ term_to_project_onto8_integralized
                        (- (+ |mem_10@pos'?10?10| (- mem_10@pos?116?116)))) 0)
                (= (+ term_to_project_onto7_integralized
                        (- (+ |mem_11@pos'?9?9| (- mem_11@pos?117?117)))) 0)
                (= (+ term_to_project_onto6_integralized
                        (- (+ |mem_12@pos'?8?8| (- mem_12@pos?109?109)))) 0)
                (= (+ term_to_project_onto5_integralized
                        (- (+ |mem_6@width'?7?7| (- mem_6@width?126?126)))) 0)
                (= (+ term_to_project_onto4_integralized
                        (- (+ |mem_7@width'?6?6| (- mem_7@width?110?110)))) 0)
                (= (+ term_to_project_onto3_integralized
                        (- (+ |mem_8@width'?5?5| (- mem_8@width?118?118)))) 0)
                (= (+ term_to_project_onto2_integralized
                        (- (+ |mem_9@width'?4?4| (- mem_9@width?123?123)))) 0)
                (= (+ term_to_project_onto1_integralized
                        (- (+ |mem_10@width'?3?3| (- mem_10@width?119?119)))) 0)
                (= (+ term_to_project_onto0_integralized
                        (- (+ |mem_11@width'?2?2| (- mem_11@width?120?120)))) 0)
                (= (+ term_to_project_onto_integralized
                        (- (+ |mem_12@width'?1?1| (- mem_12@width?111?111)))) 0))))
(check-sat)